p cnf 27 73
a 17 13 0
e 1 2 3 4 5 6 7 8 9 10 11 12 14 15 16 18 19 20 21 22 23 24 25 26 27 0
4 -1 0
4 3 0
1 -3 -4 0
-4 3 -5 0
4 -3 -5 0
-4 -3 5 0
4 3 5 0
6 2 0
6 -5 0
-2 5 -6 0
-6 -7 -8 0
6 7 -8 0
-6 7 8 0
6 -7 8 0
-1 -8 -9 0
1 8 -9 0
-1 8 9 0
1 -8 9 0
-11 -10 0
-11 -2 0
10 2 11 0
8 -11 -12 0
-8 11 -12 0
8 11 12 0
-8 -11 12 0
14 13 0
14 2 0
-13 -2 -14 0
2 -14 -15 0
-2 14 -15 0
2 14 15 0
-2 -14 15 0
-16 -12 0
-16 15 0
12 -15 16 0
-17 9 0
-17 16 0
-9 -16 17 0
-18 3 0
-18 11 0
-3 -11 18 0
19 -3 0
19 1 0
3 -1 -19 0
20 18 0
20 19 0
-18 -19 -20 0
-22 -5 0
-22 21 0
5 -21 22 0
10 23 -24 0
-10 -23 -24 0
10 -23 24 0
-10 23 24 0
-25 22 0
-25 24 0
-22 -24 25 0
20 -25 -26 0
-20 25 -26 0
20 25 26 0
-20 -25 26 0
-17 26 -27 0
17 -26 -27 0
-17 -26 27 0
17 26 27 0
-21 -25 -6 -5 26 0
-4 -23 7 -1 3 20 -19 0
16 -15 22 0
-23 -11 -15 16 24 0
-11 -2 -6 -17 22 0
-10 -22 -20 25 8 -17 19 15 0
16 -20 14 12 0
27 0
